% 
% Converted by convert_jobshop2.pl
% 
% original file (la02) from Google or-tools SVN repository
%   or-tools-read-only/data/jobshop/la02
%
%
% This data file is to be used with either of these two MiniZinc models:
%    http://www.hakank.org/minizinc/jobshop.mzn
%    http://www.hakank.org/minizinc/jobshop2.mzn
%


 
% +++++++++++++++++++++++++++++
% instance la02
% +++++++++++++++++++++++++++++
% Lawrence 10x5 instance (Table 3, instance 2); also called (setf2) or (F2)

num_machines = 10;
num_jobs = 5;
max_time = 99999; 

%
% The times for each job.
%
job_times = array2d(1..num_machines, 1..num_jobs,
[
20,87,31,76,17,
25,32,24,18,81,
72,23,28,58,99,
86,76,97,45,90,
27,42,48,17,46,
67,98,48,27,62,
28,12,19,80,50,
63,94,98,50,80,
14,75,50,41,55,
72,18,37,79,61,
]);


%
% The order each job must be done.
%
job_order = array2d(1..num_machines, 1..num_jobs,
[
0,3,1,4,2,
4,2,0,1,3,
1,2,4,0,3,
2,1,4,0,3,
4,0,3,2,1,
1,0,4,3,2,
4,1,3,0,2,
1,0,2,3,4,
4,0,2,1,3,
4,2,1,3,0,
]);
